b39c773333a59ebbb84a99b67e7c2d5f5150c849
1.0
   0.000000000000000   10.868014479439731   10.868014479439731
  10.868014479439731    0.000000000000000   10.868014479439731
  10.868014479439731   10.868014479439731    0.000000000000000
Si
128
Direct
   0.219151656951344    0.219227117322061    0.218173872629774
   0.469397748590502    0.218560161014997    0.218909888269986
   0.718223805807062    0.219487325974739    0.218896129538320
   0.969273127944496    0.219727728520674    0.218354908331240
   0.218028245216188    0.467467223336554    0.219479988683032
   0.469255233757538    0.468468214039682    0.219729967050034
   0.717907169436962    0.469334310574619    0.217747354892450
   0.967323644278474    0.469290454301222    0.218854319232313
   0.218372455616790    0.719627013003218    0.218585334402586
   0.468643139180551    0.719798769036180    0.218527889712706
   0.719044934654781    0.719964261392657    0.217472969311491
   0.968793074951603    0.719386211918460    0.218302919257928
   0.218559878162152    0.968456941747827    0.219841377400313
   0.468323252608234    0.968641089570403    0.219398223213376
   0.719422965080327    0.968830496562381    0.219075164372354
   0.968918168009101    0.970214221903817    0.218385329561651
   0.219296395121717    0.218020102638127    0.469222503675101
   0.468230287988087    0.219426591943153    0.468337877612539
   0.718478090422113    0.218347578117929    0.469366164405425
   0.968362033498423    0.217961937859252    0.470227987352886
   0.219108123509015    0.467822207678828    0.469083342008864
   0.468558001097375    0.469501051388952    0.470135514301492
   0.717367789529244    0.468284129104860    0.470181812274541
   0.968701249891751    0.469650070003033    0.467863682718584
   0.218677928320491    0.718673178378433    0.469243544721738
   0.469553843771006    0.718485485019408    0.468223016026640
   0.719501830374861    0.718796815764440    0.468028480469183
   0.970406260860771    0.717787252640796    0.468906649781020
   0.218598938072174    0.968157891524413    0.470723582172222
   0.468684271873491    0.967995794747137    0.468608389081817
   0.718391145356912    0.969448960045168    0.468394283796053
   0.969428935028255    0.969904031199710    0.467606087424504
   0.218376857282261    0.217854624301957    0.720231229824472
   0.467573091351161    0.218109663538789    0.720042755348644
   0.719773170410937    0.218819204484239    0.718336664816032
   0.969344092401063    0.217609739877939    0.720164809678690
   0.218347520730875    0.469282817158845    0.718595894554150
   0.468654803386584    0.468192578943959    0.718328745214423
   0.717237962811081    0.469516710094091    0.719131676323509
   0.968484357541940    0.469345304473980    0.719161665331964
   0.219406983036280    0.718380484271729    0.719351979684356
   0.468906638297377    0.719478208973998    0.717897995468227
   0.718647840140566    0.719629751679006    0.719090379463930
   0.969840511017525    0.718841155276865    0.718752865679366
   0.217859439162149    0.968799887712849    0.718040452427984
   0.468005039194216    0.968693919426308    0.720579224571698
   0.718387788672101    0.969152346304570    0.719025690866029
   0.968244767813787    0.969610976227852    0.720316769080193
   0.218029163767450    0.218633254039843    0.969007971823124
   0.469813216683566    0.218597810771146    0.968704100943890
   0.719244408747046    0.218196038798596    0.968661507008624
   0.969501904922924    0.218467217103348    0.967050679179115
   0.219680348766542    0.468789210854197    0.968131572068760
   0.468272248738376    0.468664163866716    0.968750674287764
   0.719391870708672    0.468859177352205    0.968486334596916
   0.970213001666944    0.467619605083803    0.968516938641560
   0.217975689339131    0.718322927522058    0.970409226664957
   0.468140693561567    0.718611855818779    0.968706773326241
   0.718425605945777    0.718807392592649    0.968400689145631
   0.968540422943354    0.718119759755908    0.968688842915119
   0.219976145763883    0.967424906914731    0.969059787973528
   0.468301507543440    0.968805712205242    0.969224143705156
   0.719759423542104    0.967405919703380    0.967850957123856
   0.968927436481968    0.968618104419276    0.968357087975902
   0.030738457132709    0.030108442644604    0.031983771743560
   0.280603156698441    0.031379552406829    0.032314317275987
   0.531044452397525    0.032128781575898    0.030064598289049
   0.780921624241079    0.031125385157162    0.030101329102717
   0.031589443655322    0.281182542450437    0.031487974742206
   0.281978848013876    0.281247073143474    0.030801297146905
   0.531684245073188    0.281651402033688    0.030634992056072
   0.780913366470075    0.280516267467755    0.032412542854270
   0.032561246587894    0.531500881430398    0.030003802631170
   0.281729697672930    0.530825786069275    0.031450473474593
   0.531409293593396    0.531905276328350    0.030532679560578
   0.781405408211902    0.531313191191632    0.031867054232137
   0.031050894715528    0.782288122961464    0.032265112243579
   0.280914523421245    0.781127647875828    0.032702347410227
   0.530934649198984    0.780653342334840    0.031474892513924
   0.781721402729894    0.781351998689670    0.030165648270640
   0.030166559189532    0.030534888072502    0.283177963408111
   0.281339999043090    0.030544257859403    0.281545225942403
   0.530404525372731    0.031822588466738    0.281096681713672
   0.782415301461099    0.031555292498125    0.280130927304291
   0.030162601289522    0.281599850144288    0.281049301150904
   0.281551123538895    0.280709097171626    0.281236235086971
   0.529622261855499    0.281864120348585    0.282011720525563
   0.781316101821022    0.281311420651562    0.281098106978755
   0.031631033159242    0.531030480995185    0.281715572260642
   0.281066604789865    0.529684027867675    0.282486477771915
   0.530524439022352    0.532255512324720    0.281256355816880
   0.781926591257262    0.530666083405447    0.281115816231565
   0.030698654767734    0.781497810715496    0.281408215923640
   0.282390159081168    0.781699934731822    0.280807016314359
   0.531667389005541    0.782025567249859    0.280283223181128
   0.780913263237778    0.781694994655143    0.280855062156828
   0.030675514410563    0.032483546503716    0.531449368630637
   0.281023049775235    0.031386289337529    0.530226050784434
   0.528710586183360    0.032697592112719    0.531026892929625
   0.779686456015644    0.032618907665386    0.531562031386695
   0.031903113570081    0.280460816613733    0.531760730783536
   0.280810029581841    0.281771275619690    0.530507508467806
   0.530160374374068    0.279327234732446    0.532446877231952
   0.781939913797631    0.280727133351588    0.530812153703485
   0.031078126358453    0.532901487463610    0.531229336893050
   0.281729628982360    0.530702128168662    0.530990174715548
   0.532541348434543    0.531401822091886    0.530942899982176
   0.780397333032671    0.531882119085272    0.530937184890043
   0.030994263751019    0.782507447682160    0.531737294007282
   0.280190652039471    0.783062431203188    0.530895365588813
   0.530631079334640    0.781653948170155    0.531601629587652
   0.782444761547832    0.779580664722198    0.530658906207778
   0.030239885102926    0.031546369972138    0.782126611720185
   0.281346866053036    0.031232622893349    0.780750552485249
   0.531376854871800    0.030447117379453    0.782245638515916
   0.779415207093269    0.031415058529410    0.781929433789521
   0.030630083768651    0.282339687098908    0.779032218819754
   0.281667224408224    0.280402160461625    0.780776063400775
   0.531754808023905    0.279190410031498    0.782420704276318
   0.781822292093020    0.282124460703267    0.781694021664934
   0.031703468411328    0.531677952674298    0.781577986327418
   0.280607348372064    0.530980455991344    0.781420410228417
   0.532093928446484    0.532210709161034    0.779872478479983
   0.780372372645584    0.531312075800675    0.781607569745097
   0.031172428759517    0.782291642683686    0.780871625641472
   0.281013540150626    0.780318432108814    0.780650695598979
   0.531190092969040    0.781665098781060    0.781731527195364
   0.781178354530237    0.780772462825888    0.781059275960723
