&CONTROL
   calculation      = 'scf'
   tstress          = .true.
   tprnfor          = .true.
   pseudo_dir       = '/work/e89/e89/kw2318/pseudo_espresso'
/
&SYSTEM
   ecutwfc          = 60
   ecutrho          = 240
   ntyp             = 1
   nat              = 128
   ibrav            = 0
/
&ELECTRONS
   conv_thr         = 1e-06
/
&IONS
/
&CELL
/

ATOMIC_SPECIES
Si 28.085 Si.upf

K_POINTS automatic
4 4 4  0 0 0

CELL_PARAMETERS angstrom
0.00000000000000 10.86801447943973 10.86801447943973
10.86801447943973 0.00000000000000 10.86801447943973
10.86801447943973 10.86801447943973 0.00000000000000

ATOMIC_POSITIONS angstrom
Si 4.7536802921 4.7528601877 4.7643068663 
Si 4.7544308300 7.4805373637 7.4767365228 
Si 4.7643577421 10.1846330263 10.1910581577 
Si 4.7610884405 12.9071586944 12.9220785241 
Si 7.4657522468 4.7548458209 7.4499746778 
Si 7.4793477968 7.4879011385 10.1911920084 
Si 7.4672134889 10.1687069182 12.9029575954 
Si 7.4787673627 12.8913992826 15.6131428247 
Si 10.1965053764 4.7488635888 10.1941918067 
Si 10.1977477137 7.4681846919 12.9160038665 
Si 10.1880813969 10.1780901406 15.6391727787 
Si 10.1908190548 12.9013764536 18.3471569336 
Si 12.9144433384 4.7645511933 12.9005159861 
Si 12.9116284535 7.4741669571 15.6169492772 
Si 12.9101759232 10.1996112598 18.3479630661 
Si 12.9177171356 12.9036316031 21.0745188911 
Si 7.4689625963 7.4828333615 4.7527620298 
Si 7.4746342136 10.1786363847 7.4734649280 
Si 7.4740829115 12.9095085608 10.1814349304 
Si 7.4792580718 15.6346171766 12.8929860980 
Si 10.1823030799 7.4792748119 7.4655687857 
Si 10.2119838013 10.2017347171 10.1948393650 
Si 10.1992614394 12.9063062675 12.8856822193 
Si 10.1889130393 15.6126084883 15.6320229711 
Si 12.9102961470 7.4763405297 10.1871453999 
Si 12.8971651722 10.1917724908 12.9116286274 
Si 12.8984345040 12.9060966130 15.6314505120 
Si 12.8970065142 15.6424735533 18.3473115488 
Si 15.6377846903 7.4915671310 12.8976904076 
Si 15.6130350711 10.1865102107 15.6138597664 
Si 15.6265011932 12.8980012280 18.3434707045 
Si 15.6228807835 15.6177174315 21.0766987574 
Si 10.1951306456 10.2008062812 4.7409700582 
Si 10.1958540724 12.9070262179 7.4520101084 
Si 10.1850235570 15.6293985123 10.2006355207 
Si 10.1917473830 18.3616072109 12.8998314356 
Si 12.9098830387 10.1827146037 7.4731764687 
Si 12.8951309311 12.9001543931 10.1816709162 
Si 12.9182478745 15.6104860359 12.8976669687 
Si 12.9167109568 18.3413614128 15.6263535858 
Si 15.6252972358 10.2024459996 10.1918877733 
Si 15.6214254023 12.8982099440 12.9153837273 
Si 15.6360312171 15.6253597883 15.6312216933 
Si 15.6237926353 18.3516572678 18.3526168005 
Si 18.3326052412 10.1713735731 12.8966307466 
Si 18.3590449887 12.9175509886 15.6140650849 
Si 18.3471433518 15.6218305086 18.3402106216 
Si 18.3661592052 18.3513112324 21.0606442853 
Si 12.9073020391 12.9007367772 4.7456534794 
Si 12.9036143680 15.6338270369 7.4816610142 
Si 12.8987849929 18.3441859324 10.1881163575 
Si 12.8842256624 21.0464815242 12.9108656193 
Si 15.6164758746 12.9091571545 7.4822971426 
Si 15.6218452740 15.6175859347 10.1826384985 
Si 15.6210918358 18.3438847748 12.9139295955 
Si 15.6079527517 21.0701450630 15.6263855892 
Si 18.3531655036 12.9153844743 10.1757069251 
Si 18.3378032930 15.6156790749 12.8976438902 
Si 18.3366018622 18.3324525994 15.6198690384 
Si 18.3322603179 21.0538357113 18.3306472875 
Si 21.0457437033 12.9224597444 12.9046918334 
Si 21.0625365356 15.6230495923 15.6185020727 
Si 21.0323997588 18.3409740527 18.3361373796 
Si 21.0510744373 21.0544362626 21.0572729931 
Si 0.6748190850 0.6816660916 0.6612849878 
Si 0.6922258980 3.4007916380 3.3906325999 
Si 0.6759185529 6.0981412874 6.1205748613 
Si 0.6654128171 8.8142092001 8.8253386561 
Si 3.3981077081 0.6855262965 3.3992104738 
Si 3.3913462066 3.3992991465 6.1211474663 
Si 3.3939330527 6.1112936112 8.8393435894 
Si 3.4009148416 8.8392377590 11.5356326305 
Si 6.1024410367 0.6799578608 6.1302353746 
Si 6.1108265302 3.4036466347 8.8308647627 
Si 6.1125838484 6.1071935008 11.5561181421 
Si 6.1206510618 8.8386568976 14.2666447457 
Si 8.8525763545 0.6881192804 8.8393802208 
Si 8.8447161726 3.4083926932 11.5422896954 
Si 8.8262214155 6.1122750427 14.2543572830 
Si 8.8195855375 8.8236002259 16.9875043591 
Si 3.4094358123 3.4054328086 0.6597042078 
Si 3.3917930288 6.1174447754 3.3895626199 
Si 3.4008111592 8.8194068687 6.1102924139 
Si 3.3874103499 11.5477677993 8.8462442010 
Si 6.1148791231 3.3822554619 3.3882388363 
Si 6.1072300076 6.1163811624 6.1106522199 
Si 6.1282108032 8.8208498725 8.8192457517 
Si 6.1122748897 11.5463330044 11.5486513005 
Si 8.8329358749 3.4054554448 6.1150134829 
Si 8.8266808151 6.1247030612 8.8112496149 
Si 8.8412587622 8.8224454324 11.5503078997 
Si 8.8224574394 11.5531602768 14.2652761938 
Si 11.5516780878 3.3919819898 8.8269629470 
Si 11.5473409285 6.1208350570 11.5645465470 
Si 11.5451873160 8.8242910098 14.2772340701 
Si 11.5478094026 11.5393135342 16.9824491725 
Si 6.1288310871 6.1091813681 0.6864135885 
Si 6.1036110443 8.8166669713 3.3952692210 
Si 6.1265658659 11.5172422674 6.1013922106 
Si 6.1315266146 14.2506675472 8.8281464542 
Si 8.8272355376 6.1259068220 3.3947757161 
Si 8.8278575868 8.8174107509 6.1141417708 
Si 8.8223728029 11.5484309964 8.7975230567 
Si 8.8198207223 14.2670084775 11.5490808552 
Si 11.5649892071 6.1111656525 6.1293386091 
Si 11.5384873205 8.8326505943 8.8295201003 
Si 11.5455778217 11.5579622104 11.5629497826 
Si 11.5507355846 14.2516025282 14.2618720867 
Si 14.2832308822 6.1157747178 8.8411483789 
Si 14.2801123609 8.8148945837 11.5554499040 
Si 14.2724806343 11.5443604611 14.2619326801 
Si 14.2397026284 14.2708296742 16.9761149500 
Si 8.8430097466 8.8288108501 0.6714939148 
Si 8.8246449071 11.5428901232 3.3971184118 
Si 8.8323566384 14.2764682787 6.1059110653 
Si 8.8394397193 16.9687161645 8.8121150672 
Si 11.5350052416 8.7994216280 3.4013600014 
Si 11.5329003022 11.5466490355 6.1085782132 
Si 11.5376049618 14.2824784962 8.8133643719 
Si 11.5615946699 16.9923179368 11.5629887147 
Si 14.2724845603 8.8387546260 6.1228374418 
Si 14.2631916169 11.5421330580 8.8203480092 
Si 14.2597390815 14.2584699070 11.5668782121 
Si 14.2688297181 16.9756206305 14.2554055782 
Si 16.9884810339 8.8253065412 8.8407393069 
Si 16.9646350819 11.5381822864 11.5345712420 
Si 16.9910171682 14.2688511783 14.2681292333 
Si 16.9740099516 16.9784211885 16.9753040992 

